\ LP format - for model browsing. Use MPS format to capture full model detail.
Maximize
  10 x_1 + 2 x_2 + 4 x_3 + 10 x_4 + 5 x_5 + 4 x_6 + 7 x_7 + 2 x_8 + 10 x_9
   + 7 x_10 + 4 x_11 + 9 x_12 + 10 x_13 + 5 x_14 + 7 x_15 + 10 x_16 + x_17
   + 6 x_18 + 7 x_19 + 7 x_20
Subject To
 C_1: 4 x_1 + 6 x_2 + 4 x_3 + x_4 + 2 x_5 + 2 x_6 + 5 x_7 + 4 x_8 + 8 x_9
   + x_10 + 8 x_11 + 7 x_12 + 4 x_13 + 3 x_14 + 8 x_15 + 9 x_16 + 6 x_17
   + 5 x_18 + 2 x_19 + 8 x_20 <= 48
 C_2: 3 x_1 + 8 x_2 + 6 x_3 + 4 x_4 + 2 x_5 + 4 x_6 + 3 x_7 + 5 x_8 + 9 x_9
   + x_10 + x_11 + 2 x_12 + 7 x_13 + 7 x_14 + 2 x_15 + 10 x_16 + 8 x_17
   + 8 x_18 + 3 x_19 + 7 x_20 <= 50
 C_3: x_1 + 10 x_2 + 6 x_3 + 4 x_4 + 2 x_5 + 3 x_6 + 4 x_7 + 10 x_8 + 9 x_9
   + 8 x_10 + 7 x_11 + 4 x_12 + 5 x_13 + 4 x_14 + 7 x_15 + 8 x_16 + 7 x_17
   + 2 x_18 + 4 x_19 + 5 x_20 <= 55
 C_4: 2 x_1 + 7 x_2 + 8 x_3 + 10 x_4 + 3 x_5 + x_6 + 9 x_7 + 2 x_8 + 8 x_9
   + 4 x_10 + 10 x_11 + 10 x_12 + 5 x_13 + 5 x_14 + 4 x_15 + 9 x_16
   + 10 x_17 + 9 x_18 + 8 x_19 + 8 x_20 <= 66
 C_5: 6 x_1 + 6 x_2 + x_3 + 2 x_4 + 9 x_5 + 10 x_6 + 2 x_7 + 7 x_8 + x_9
   + 5 x_10 + x_11 + 4 x_12 + 3 x_13 + 10 x_14 + 4 x_15 + 5 x_16 + 10 x_17
   + 4 x_18 + 8 x_19 + 7 x_20 <= 52
Bounds
Binaries
 x_1 x_2 x_3 x_4 x_5 x_6 x_7 x_8 x_9 x_10 x_11 x_12 x_13 x_14 x_15 x_16
 x_17 x_18 x_19 x_20
End
